NAME : tsp_6_sol.txt
COMMENT : OR-Tools Guided Local Search
TYPE : TOUR
DIMENSION : 50
COST : 5954
STATUS : ROUTING_SUCCESS
GAP : 0.00% (Reference Solution)
TOUR_SECTION
1
42
21
19
41
12
7
33
35
16
15
17
8
18
22
13
45
46
4
49
11
38
36
5
47
44
30
50
31
20
26
2
39
14
25
27
48
3
40
34
28
23
37
10
9
29
43
6
32
24
-1
